clingo version 5.4.0
Reading from merger/Adrian/merge.lp ...
Solving...
Answer: 1
occurs(object(robot,3),action(move,(0,-1)),1). occurs(object(robot,2),action(move,(0,1)),1). occurs(object(robot,1),action(move,(-1,0)),2). occurs(object(robot,4),action(move,(0,-1)),2). occurs(object(robot,3),action(move,(0,-1)),2). occurs(object(robot,1),action(move,(1,0)),1). occurs(object(robot,4),action(move,(1,0)),1). occurs(object(robot,1),action(move,(0,1)),3). occurs(object(robot,4),action(move,(-1,0)),3). occurs(object(robot,3),action(move,(0,1)),3).
Optimization: 3
OPTIMUM FOUND

Models       : 1
  Optimum    : yes
Optimization : 3
Calls        : 1
Time         : 0.137s (Solving: 0.01s 1st Model: 0.00s Unsat: 0.01s)
CPU Time     : 0.125s
